



11 11
5 7 8 13 9 8 0 7 1 16 7 17 6 7 2 14 4 5 10 3 3 11
10 10 9 10 8 14 7 13 3 19 6 11 5 12 1 10 4 5 0 17 2 17
0 11 4 4 9 10 2 18 7 3 10 5 8 14 6 15 3 17 5 9 1 3
1 4 3 14 0 10 8 5 6 5 4 9 5 19 2 2 7 7 9 15 10 9
7 8 1 17 9 6 8 3 10 3 4 15 0 12 2 11 3 9 6 17 5 6
1 10 10 14 4 9 6 11 0 12 5 7 2 1 7 15 8 5 9 12 3 4
9 1 1 15 4 18 6 7 8 1 2 2 7 7 5 5 0 19 10 6 3 7
4 19 2 19 0 15 3 8 5 17 1 8 6 12 7 15 10 9 8 9 9 9
0 17 3 3 8 1 1 8 10 13 4 18 6 2 7 11 5 10 2 12 9 6
10 18 6 6 9 11 0 15 2 18 7 11 3 9 4 17 5 13 8 14 1 17
10 5 8 19 5 5 9 4 4 13 1 3 2 13 0 1 7 1 6 16 3 5
